
Gurobi 13.0.1 (linux64) logging started Sun Mar 22 04:07:44 2026

Set parameter LogFile to value "logs/100B_3F_robust_gamma_0d75_theta_0d05199999999999999_2026-03-22_04h06m53s.log"
Set parameter MIPGap to value 0.005
Set parameter OptimalityTol to value 0.005
Gurobi Optimizer version 13.0.1 build v13.0.1rc0 (linux64 - "openSUSE Tumbleweed")

CPU model: Intel(R) Core(TM) i7-10610U CPU @ 1.80GHz, instruction set [SSE2|AVX|AVX2]
Thread count: 4 physical cores, 8 logical processors, using up to 8 threads

Non-default parameters:
TimeLimit  3600
SoftMemLimit  12
MIPGap  0.005
OptimalityTol  0.005

Optimize a model with 60721 rows, 1531121 columns and 4635098 nonzeros (Max)
Model fingerprint: 0x61ef1ae8
Model has 1485111 linear objective coefficients
Variable types: 16121 continuous, 1515000 integer (1515000 binary)
Coefficient statistics:
  Matrix range     [3e-05, 1e+05]
  Objective range  [1e+00, 3e+03]
  Bounds range     [1e+00, 1e+05]
  RHS range        [1e+00, 1e+05]

Presolve removed 36714 rows and 1241081 columns
Presolve time: 1.04s
Presolved: 24007 rows, 290040 columns, 921754 nonzeros
Variable types: 6446 continuous, 283594 integer (283594 binary)
Found heuristic solution: objective -4.95506e+08
Performing another presolve...
Presolve added 0 rows and 10 columns
Presolve removed 18 rows and 0 columns
Presolve time: 1.82s
Deterministic concurrent LP optimizer: primal simplex, dual simplex, and barrier
Showing barrier log only...

Root barrier log...

Ordering time: 0.87s

Barrier statistics:
 AA' NZ     : 4.530e+05
 Factor NZ  : 4.055e+06 (roughly 160 MB of memory)
 Factor Ops : 1.381e+09 (less than 1 second per iteration)
 Threads    : 2

                  Objective                Residual
Iter       Primal          Dual         Primal    Dual     Compl     Time
   0  -2.18161674e+12  1.35026766e+09  8.62e+07 1.02e+03  2.21e+07     7s
   1  -2.39675861e+11  4.83732188e+09  9.49e+06 4.57e-11  2.50e+06     7s
   2  -9.61907854e+09  2.59158800e+09  3.80e+05 7.25e-11  1.04e+05     7s
   3  -8.02427233e+08  1.81002568e+09  3.33e+04 5.23e-11  1.18e+04     7s
   4   1.01840030e+08  1.18562521e+09  5.15e+03 4.46e-11  2.83e+03     7s
   5   2.01120248e+08  8.57152844e+08  2.15e+03 4.51e-11  1.47e+03     8s
   6   2.52418956e+08  4.74569578e+08  5.72e+02 5.14e-11  4.56e+02     8s
   7   2.64672413e+08  3.53621575e+08  2.14e+02 5.64e-11  1.78e+02     8s
   8   2.68809526e+08  3.06314956e+08  1.05e+02 4.93e-11  7.62e+01     8s
   9   2.70901333e+08  2.81819455e+08  5.40e+01 2.35e-10  2.49e+01     9s
  10   2.72268266e+08  2.77149537e+08  2.30e+01 1.36e-10  1.07e+01     9s
  11   2.72667901e+08  2.75324984e+08  1.39e+01 8.71e-11  5.72e+00     9s
  12   2.73049069e+08  2.74280127e+08  5.45e+00 3.88e-10  2.42e+00     9s
  13   2.73267044e+08  2.73780600e+08  1.16e+00 2.54e-10  9.02e-01     9s
  14   2.73333167e+08  2.73578838e+08  4.07e-01 2.21e-10  4.18e-01    10s
  15   2.73357722e+08  2.73513293e+08  1.97e-01 1.85e-10  2.63e-01    10s
  16   2.73380159e+08  2.73461292e+08  7.68e-02 1.91e-10  1.37e-01    10s
  17   2.73391997e+08  2.73431396e+08  3.85e-02 2.17e-10  6.65e-02    10s
  18   2.73398559e+08  2.73419484e+08  1.87e-02 2.01e-10  3.53e-02    11s
  19   2.73400313e+08  2.73414520e+08  1.36e-02 2.21e-10  2.40e-02    11s
  20   2.73401539e+08  2.73412223e+08  1.03e-02 2.19e-10  1.80e-02    11s
  21   2.73402717e+08  2.73409689e+08  7.10e-03 2.64e-10  1.18e-02    11s
  22   2.73403683e+08  2.73408167e+08  4.57e-03 2.38e-10  7.57e-03    11s
  23   2.73404375e+08  2.73407704e+08  2.86e-03 2.09e-10  5.62e-03    12s
  24   2.73404654e+08  2.73406671e+08  2.14e-03 1.87e-10  3.41e-03    12s
  25   2.73404881e+08  2.73406486e+08  1.59e-03 2.51e-10  2.71e-03    12s
  26   2.73405025e+08  2.73406318e+08  1.25e-03 3.24e-10  2.18e-03    12s
  27   2.73405234e+08  2.73406072e+08  7.28e-04 2.57e-10  1.41e-03    12s
  28   2.73405364e+08  2.73405891e+08  4.20e-04 2.36e-10  8.89e-04    13s
  29   2.73405451e+08  2.73405814e+08  2.22e-04 2.36e-10  6.13e-04    13s
  30   2.73405476e+08  2.73405741e+08  1.65e-04 2.71e-10  4.47e-04    13s
  31   2.73405504e+08  2.73405703e+08  1.04e-04 2.59e-10  3.37e-04    13s
  32   2.73405518e+08  2.73405644e+08  7.30e-05 1.99e-10  2.14e-04    14s
  33   2.73405540e+08  2.73405595e+08  2.92e-05 1.93e-10  9.33e-05    14s
  34   2.73405551e+08  2.73405572e+08  8.04e-06 1.98e-10  3.59e-05    14s
  35   2.73405553e+08  2.73405566e+08  5.02e-06 2.32e-10  2.25e-05    14s
  36   2.73405553e+08  2.73405564e+08  4.08e-06 2.52e-10  1.86e-05    14s
  37   2.73405554e+08  2.73405561e+08  2.51e-06 2.22e-10  1.12e-05    15s
  38   2.73405555e+08  2.73405560e+08  9.76e-07 2.99e-10  8.64e-06    15s
  39   2.73405556e+08  2.73405558e+08  1.88e-07 2.31e-10  3.15e-06    15s
  40   2.73405556e+08  2.73405556e+08  3.00e-09 1.94e-10  3.97e-07    15s
  41   2.73405556e+08  2.73405556e+08  3.45e-09 1.37e-10  5.56e-09    15s

Barrier solved model in 41 iterations and 15.46 seconds (10.84 work units)
Optimal objective 2.73405556e+08


Root crossover log...

    7714 DPushes remaining with DInf 1.6592481e-02                16s
       0 DPushes remaining with DInf 0.0000000e+00                16s

    4688 PPushes remaining with PInf 3.6575551e-03                16s
       0 PPushes remaining with PInf 0.0000000e+00                16s

  Push phase complete: Pinf 0.0000000e+00, Dinf 2.2597659e+04     16s


Root simplex log...

Iteration    Objective       Primal Inf.    Dual Inf.      Time
   11996    2.7340556e+08   0.000000e+00   2.259757e+04     16s
   12743    2.7340556e+08   0.000000e+00   0.000000e+00     17s
Crossover time: 1.07 seconds (0.50 work units)
Concurrent spin time: 0.37s

Solved with barrier

Root relaxation: objective 2.734056e+08, 12743 iterations, 12.18 seconds (6.70 work units)
Total elapsed time = 16.93s (DegenMoves)

    Nodes    |    Current Node    |     Objective Bounds      |     Work
 Expl Unexpl |  Obj  Depth IntInf | Incumbent    BestBd   Gap | It/Node Time

     0     0 2.7341e+08    0 7787 -4.955e+08 2.7341e+08   155%     -   17s
H    0     0                    -1.26688e+08 2.7341e+08   316%     -   18s
H    0     0                    -8.78621e+07 2.7341e+08   411%     -   18s
H    0     0                    -8.76861e+07 2.7341e+08   412%     -   19s
H    0     0                    -8.76776e+07 2.7341e+08   412%     -   19s
H    0     0                    1.203801e+08 2.7341e+08   127%     -   21s
H    0     0                    2.276480e+08 2.7341e+08  20.1%     -   22s
     0     0 2.7341e+08    0 7788 2.2765e+08 2.7341e+08  20.1%     -  610s
H    0     0                    2.289911e+08 2.7341e+08  19.4%     -  617s
H    0     0                    2.337914e+08 2.7341e+08  16.9%     -  686s
H    0     0                    2.337914e+08 2.7341e+08  16.9%     -  809s
H    0     0                    2.337922e+08 2.7341e+08  16.9%     -  938s
     0     0 2.7340e+08    0 7884 2.3379e+08 2.7340e+08  16.9%     - 3049s
H    0     0                    2.426854e+08 2.7340e+08  12.7%     - 3051s
H    0     0                    2.426931e+08 2.7340e+08  12.7%     - 3053s
H    0     0                    2.517661e+08 2.7340e+08  8.59%     - 3059s
H    0     0                    2.533458e+08 2.7340e+08  7.92%     - 3070s
H    0     0                    2.535314e+08 2.7340e+08  7.84%     - 3108s
H    0     0                    2.535509e+08 2.7340e+08  7.83%     - 3175s
H    0     0                    2.535521e+08 2.7340e+08  7.83%     - 3202s
H    0     0                    2.535525e+08 2.7340e+08  7.83%     - 3295s
     0     0 2.7340e+08    0 7872 2.5355e+08 2.7340e+08  7.83%     - 3533s
     0     0          -    0      2.5355e+08 2.7340e+08  7.83%     - 3600s

Cutting planes:
  MIR: 52
  Flow cover: 89
  RLT: 2666
  Relax-and-lift: 80

Explored 1 nodes (900058 simplex iterations) in 3600.09 seconds (4723.62 work units)
Thread count was 8 (of 8 available processors)

Solution count 10: 2.53553e+08 2.53552e+08 2.53551e+08 ... 2.33791e+08

Time limit reached
Best objective 2.535525087548e+08, best bound 2.734034906155e+08, gap 7.8291%
